 200 42 
 57 60 21 11 21 74 40 14 86 72 19 18 
 25 99 29 50 71 48 96 15 91 17 80 82 
 18 28 11 89 54 10 81 75 55 37 75 67 
 74 35 26 68 24 100 
 22 
 2 3 4 6 9 12 13 15 16 18 22 24 
 25 26 28 30 31 32 35 39 41 42 
 35 
 1 3 4 5 6 7 8 9 10 11 12 13 
 14 15 16 17 18 20 21 22 24 25 27 29 
 30 31 32 33 35 37 38 39 40 41 42 
 37 
 1 2 3 4 5 6 7 9 10 11 12 13 
 15 16 17 18 20 22 23 24 25 26 27 28 
 29 30 31 33 34 35 36 37 38 39 40 41 
 42 
 11 
 5 6 7 10 19 27 30 33 36 40 41 
 16 
 3 7 11 14 16 17 20 21 23 25 26 28 
 29 33 39 42 
 29 
 2 4 6 7 9 10 11 12 13 14 15 16 
 17 19 21 23 24 25 26 28 29 30 31 32 
 33 36 37 38 41 
 39 
 1 2 3 4 5 6 7 8 9 10 11 12 
 13 14 15 16 17 18 19 20 21 22 23 24 
 25 26 27 28 29 30 31 32 35 36 37 38 
 39 40 41 
 31 
 1 2 5 6 7 8 9 11 12 14 15 16 
 17 19 20 21 22 23 24 27 28 29 30 31 
 34 35 36 37 38 40 41 
 40 
 1 2 3 4 5 6 7 8 9 10 11 12 
 13 15 16 17 18 19 20 21 23 24 25 26 
 27 28 29 30 31 32 33 34 35 36 37 38 
 39 40 41 42 
 13 
 1 3 16 17 18 26 28 30 31 33 34 36 
 40 
 21 
 1 2 5 9 13 14 15 16 17 18 19 22 
 23 28 31 35 36 39 40 41 42 
 28 
 2 3 4 7 9 11 14 16 18 20 21 22 
 23 25 27 28 29 30 31 32 33 34 35 37 
 38 40 41 42 
 30 
 1 3 5 6 8 9 11 12 13 14 16 19 
 20 21 22 24 25 27 28 30 31 32 34 35 
 36 37 38 39 41 42 
 5 
 2 10 30 37 42 
 12 
 1 3 6 7 10 12 13 18 22 24 25 42 
 8 
 8 12 30 34 35 40 41 42 
 21 
 1 2 5 6 8 9 13 15 16 18 20 21 
 22 25 27 30 32 34 36 37 38 
 29 
 1 2 4 6 7 8 9 10 13 15 16 17 
 20 22 24 26 28 29 31 32 33 35 36 37 
 38 39 40 41 42 
 10 
 1 9 12 16 17 21 23 28 29 35 
 7 
 1 5 8 9 15 31 34 
 28 
 3 6 7 8 9 10 12 13 14 15 16 17 
 18 20 21 22 23 25 26 27 28 30 31 35 
 37 39 40 41 
 20 
 1 5 6 8 10 14 17 19 22 26 28 29 
 34 36 37 38 39 40 41 42 
 3 
 5 39 42 
 26 
 4 6 7 10 11 13 15 16 18 19 20 21 
 22 23 26 29 30 31 32 34 35 36 39 40 
 41 42 
 5 
 25 26 28 32 34 
 15 
 1 5 6 7 11 15 23 25 27 31 33 34 
 37 40 41 
 28 
 2 4 5 6 7 9 10 12 13 14 15 16 
 18 19 20 22 23 24 25 26 27 29 30 35 
 37 38 40 42 
 12 
 5 7 8 9 17 22 25 30 31 32 36 39 
 21 
 1 2 4 7 9 11 15 18 22 25 26 28 
 29 30 34 35 36 37 39 40 41 
 38 
 1 2 3 4 5 6 7 8 9 10 11 12 
 13 14 15 16 17 18 20 21 22 23 25 26 
 28 29 30 31 32 33 34 35 36 37 38 39 
 40 41 
 13 
 1 2 3 4 10 18 24 25 26 29 30 39 
 41 
 35 
 2 3 5 6 7 8 11 13 14 15 16 17 
 18 19 20 21 22 23 24 25 26 27 28 29 
 30 31 32 34 35 36 38 39 40 41 42 
 33 
 2 3 4 5 6 8 9 10 13 14 16 17 
 18 19 20 23 24 25 26 27 28 29 30 31 
 32 33 35 36 38 39 40 41 42 
 34 
 1 2 4 5 6 7 9 10 12 13 14 15 
 17 18 19 20 21 22 24 25 26 27 30 31 
 32 33 34 35 36 37 39 40 41 42 
 35 
 2 3 4 6 7 8 9 10 11 12 13 14 
 15 16 17 18 19 21 22 23 24 26 27 30 
 31 33 34 35 36 37 38 39 40 41 42 
 9 
 11 20 26 27 31 33 35 38 42 
 11 
 2 4 6 9 12 16 17 24 27 36 40 
 9 
 9 10 16 19 24 31 33 37 42 
 41 
 1 2 3 4 5 6 7 8 9 10 11 12 
 13 14 15 16 17 18 19 20 21 22 23 24 
 25 26 27 28 29 30 31 32 33 34 35 36 
 37 38 39 41 42 
 37 
 1 2 4 5 6 7 8 9 10 11 12 14 
 15 16 18 19 20 21 22 23 24 25 26 27 
 28 29 30 31 32 33 34 35 37 38 40 41 
 42 
 10 
 2 14 18 25 30 31 33 35 37 42 
 7 
 7 8 10 14 16 17 23 
 21 
 1 2 3 4 6 7 11 16 17 19 20 21 
 22 25 26 27 28 30 32 34 41 
 33 
 1 3 4 6 7 9 10 11 12 13 14 16 
 17 18 19 20 21 23 24 25 26 27 28 29 
 30 31 32 33 34 36 38 39 41 
 32 
 1 3 4 5 7 8 9 10 11 12 14 17 
 19 20 23 24 26 27 28 29 30 31 32 33 
 34 35 37 38 39 40 41 42 
 17 
 2 3 5 7 9 10 12 13 18 26 27 29 
 31 32 33 38 40 
 28 
 2 3 4 5 7 8 10 12 13 14 15 16 
 17 20 21 22 23 24 25 27 28 29 30 32 
 36 38 41 42 
 41 
 1 2 3 4 5 6 7 8 9 10 11 12 
 13 14 15 16 17 18 19 20 21 22 23 24 
 25 26 27 28 29 30 31 32 33 34 35 36 
 37 39 40 41 42 
 16 
 2 4 7 8 9 11 16 17 18 19 20 23 
 31 32 33 37 
 31 
 1 2 3 4 5 6 9 10 11 12 15 16 
 17 18 19 21 22 23 24 25 26 27 29 30 
 31 32 34 35 36 39 42 
 39 
 1 2 3 4 5 6 7 8 9 10 11 12 
 13 14 15 16 17 18 19 20 21 22 23 24 
 25 27 28 30 31 32 33 34 35 36 38 39 
 40 41 42 
 27 
 1 4 6 7 8 9 10 11 13 14 15 17 
 19 20 21 23 26 27 28 29 31 34 36 37 
 38 41 42 
 31 
 1 2 3 5 6 10 11 12 13 14 15 16 
 18 19 20 21 22 23 24 25 26 27 29 30 
 31 33 35 38 39 41 42 
 17 
 1 2 8 9 10 13 15 18 22 24 26 27 
 30 34 35 40 41 
 17 
 2 3 4 9 13 14 17 18 20 21 22 23 
 24 27 29 34 38 
 9 
 11 13 15 18 23 26 32 37 41 
 32 
 2 4 5 7 8 9 10 11 13 14 15 16 
 18 19 20 21 22 24 25 26 27 29 30 31 
 33 34 35 36 37 39 40 42 
 2 
 28 35 
 34 
 1 2 3 4 5 6 8 9 10 11 12 15 
 17 18 19 22 23 24 25 26 27 28 29 30 
 31 32 33 34 35 36 39 40 41 42 
 21 
 1 3 8 9 13 15 17 18 22 24 25 28 
 31 32 34 35 36 37 39 40 41 
 42 
 1 2 3 4 5 6 7 8 9 10 11 12 
 13 14 15 16 17 18 19 20 21 22 23 24 
 25 26 27 28 29 30 31 32 33 34 35 36 
 37 38 39 40 41 42 
 8 
 10 13 15 21 22 30 31 38 
 20 
 1 5 7 8 12 14 15 17 22 23 25 26 
 27 30 32 34 37 38 39 41 
 39 
 1 3 4 5 6 7 8 9 10 11 12 13 
 14 15 16 17 18 19 20 21 22 23 24 25 
 26 27 28 29 30 31 33 34 35 36 37 38 
 39 40 41 
 37 
 1 2 3 4 5 6 7 9 10 11 12 13 
 14 16 17 18 19 20 21 22 23 24 25 26 
 27 28 29 30 32 33 35 36 38 39 40 41 
 42 
 19 
 1 4 7 10 11 13 16 17 21 22 23 24 
 28 29 35 36 37 39 42 
 19 
 1 6 7 11 15 17 18 23 24 25 26 28 
 29 30 31 33 35 37 41 
 23 
 1 2 5 6 7 8 9 11 15 16 17 21 
 23 26 28 29 30 32 35 36 37 39 42 
 18 
 1 2 7 12 14 15 16 18 19 27 29 31 
 33 35 36 38 39 42 
 6 
 7 10 18 33 37 41 
 15 
 2 4 6 7 18 20 23 24 26 30 31 33 
 34 35 39 
 19 
 1 2 4 5 6 7 13 15 17 19 20 22 
 25 31 32 37 38 39 42 
 38 
 1 2 3 4 5 6 7 8 9 10 11 12 
 13 14 15 16 18 20 21 22 23 24 25 26 
 27 28 29 30 32 33 34 35 36 37 38 39 
 40 42 
 28 
 3 4 6 7 9 11 13 16 17 18 19 20 
 21 22 23 24 25 29 31 32 33 36 37 38 
 39 40 41 42 
 3 
 19 27 39 
 9 
 3 4 14 17 18 29 32 37 41 
 31 
 2 3 4 5 6 7 8 9 10 12 14 15 
 16 17 18 20 21 22 23 25 26 27 28 29 
 34 37 38 39 40 41 42 
 38 
 1 2 3 4 5 6 7 8 9 10 11 12 
 13 14 15 16 17 18 19 20 22 23 24 25 
 26 27 28 29 31 32 33 34 36 37 39 40 
 41 42 
 2 
 13 34 
 33 
 2 5 6 7 9 10 11 12 13 14 18 19 
 20 21 22 23 24 25 27 28 29 30 31 32 
 34 35 36 37 38 39 40 41 42 
 10 
 1 6 7 15 21 23 26 28 33 34 
 9 
 1 14 17 32 33 34 36 39 41 
 29 
 1 3 5 6 7 8 9 10 11 13 18 19 
 21 22 24 25 26 27 29 32 33 34 35 36 
 38 39 40 41 42 
 5 
 1 3 18 21 29 
 21 
 1 2 3 4 8 9 10 11 14 15 22 25 
 31 33 34 35 36 38 39 40 42 
 22 
 1 2 3 7 8 13 14 15 22 23 24 26 
 27 28 30 32 33 37 38 39 40 41 
 39 
 1 3 4 5 6 7 8 9 10 11 12 13 
 14 16 18 19 20 21 22 23 24 25 26 27 
 28 29 30 31 32 33 34 35 36 37 38 39 
 40 41 42 
 41 
 1 2 3 4 5 6 7 8 9 10 11 12 
 13 14 15 16 17 18 19 21 22 23 24 25 
 26 27 28 29 30 31 32 33 34 35 36 37 
 38 39 40 41 42 
 41 
 1 2 3 4 5 6 7 8 10 11 12 13 
 14 15 16 17 18 19 20 21 22 23 24 25 
 26 27 28 29 30 31 32 33 34 35 36 37 
 38 39 40 41 42 
 17 
 2 4 7 8 9 10 11 13 14 15 16 18 
 22 27 28 38 40 
 27 
 4 5 6 8 9 10 11 12 13 14 15 16 
 19 20 22 23 24 27 31 32 33 34 35 36 
 39 40 42 
 22 
 5 7 8 9 11 12 14 15 16 17 19 23 
 24 27 28 29 30 31 33 38 40 41 
 26 
 3 5 6 8 9 10 11 12 13 15 17 18 
 19 23 25 26 27 28 30 31 32 33 34 37 
 40 41 
 5 
 9 31 32 33 34 
 15 
 2 3 5 10 11 15 16 17 25 29 30 31 
 33 38 40 
 18 
 1 2 5 7 8 10 16 19 20 21 22 26 
 28 29 31 32 35 42 
 17 
 1 4 5 8 10 11 13 14 16 18 19 28 
 29 33 34 41 42 
 30 
 2 3 6 7 9 10 11 14 16 18 19 20 
 22 23 24 26 28 30 31 32 33 34 35 36 
 37 38 39 40 41 42 
 39 
 1 2 3 4 5 6 7 8 10 11 12 13 
 14 15 16 18 19 20 21 22 24 25 26 27 
 28 29 30 31 32 33 34 35 36 37 38 39 
 40 41 42 
 29 
 1 2 3 4 5 7 9 11 12 15 16 17 
 20 21 22 23 25 26 28 29 34 35 36 37 
 38 39 40 41 42 
 32 
 1 2 3 4 5 7 9 10 11 12 15 16 
 18 19 20 21 23 24 25 26 28 29 30 31 
 34 35 36 38 39 40 41 42 
 18 
 1 2 4 7 8 10 11 12 13 17 19 21 
 23 27 29 31 36 38 
 32 
 1 2 4 6 7 8 9 10 11 12 14 15 
 16 18 19 20 21 23 25 26 27 28 29 31 
 32 34 35 37 38 39 41 42 
 41 
 1 2 3 4 5 6 7 9 10 11 12 13 
 14 15 16 17 18 19 20 21 22 23 24 25 
 26 27 28 29 30 31 32 33 34 35 36 37 
 38 39 40 41 42 
 2 
 7 25 
 23 
 4 5 6 7 8 9 10 12 13 17 18 19 
 20 21 22 26 28 29 35 36 37 41 42 
 30 
 1 2 3 4 5 6 7 8 9 10 11 12 
 13 15 16 17 18 19 22 25 27 29 30 31 
 33 34 37 38 40 42 
 17 
 1 2 3 4 5 7 8 9 14 15 16 19 
 27 29 32 40 41 
 35 
 1 2 3 4 5 6 7 8 9 10 11 12 
 14 15 16 17 18 19 21 22 24 25 26 27 
 30 31 32 33 34 35 36 37 39 41 42 
 2 
 23 26 
 2 
 12 37 
 40 
 1 2 3 4 5 6 7 9 10 11 12 13 
 14 15 16 17 18 19 20 21 23 24 25 26 
 27 28 29 30 31 32 33 34 35 36 37 38 
 39 40 41 42 
 8 
 1 4 13 30 31 33 36 39 
 28 
 1 2 6 7 9 10 11 12 13 15 16 17 
 18 19 20 23 26 27 28 29 30 34 35 36 
 37 38 39 42 
 41 
 1 2 3 4 5 6 7 8 9 10 11 12 
 13 14 15 16 17 18 19 20 21 22 23 24 
 25 26 27 28 29 30 31 33 34 35 36 37 
 38 39 40 41 42 
 16 
 4 6 8 9 12 14 15 24 25 26 28 30 
 33 36 39 41 
 7 
 1 9 11 26 27 30 36 
 14 
 1 5 6 8 9 14 17 25 31 33 34 38 
 39 42 
 25 
 2 3 4 6 7 8 9 11 14 15 17 19 
 20 23 24 26 27 28 29 34 36 39 40 41 
 42 
 7 
 1 10 12 18 20 27 42 
 25 
 1 5 7 10 11 12 14 16 17 18 20 21 
 22 23 24 25 28 29 30 32 34 35 39 41 
 42 
 21 
 1 3 4 5 6 8 9 11 12 15 16 19 
 26 27 28 34 35 39 40 41 42 
 10 
 2 3 6 13 17 20 22 36 40 42 
 8 
 12 15 23 24 33 36 37 41 
 34 
 1 3 4 5 6 7 8 9 11 12 14 15 
 16 18 19 20 21 22 24 25 27 28 29 31 
 32 33 34 35 36 37 38 40 41 42 
 8 
 7 10 12 22 24 29 37 42 
 7 
 5 9 12 21 23 28 37 
 22 
 1 2 3 4 5 6 9 17 18 19 24 25 
 27 28 29 32 33 34 36 37 38 41 
 26 
 2 5 7 9 14 15 17 18 19 20 21 23 
 24 25 26 27 28 30 31 33 34 35 38 39 
 41 42 
 6 
 3 13 15 22 28 31 
 9 
 10 11 13 17 25 33 37 38 41 
 40 
 1 2 4 5 6 7 8 9 10 11 12 13 
 14 15 16 17 18 19 20 21 22 23 24 25 
 26 27 28 30 31 32 33 34 35 36 37 38 
 39 40 41 42 
 33 
 1 2 3 4 6 7 8 9 12 13 14 15 
 16 17 18 19 20 21 22 23 24 25 26 27 
 29 30 33 35 36 38 39 41 42 
 9 
 3 7 10 11 18 22 24 30 41 
 21 
 3 6 8 9 11 15 16 17 18 21 22 23 
 26 30 31 33 35 36 37 38 39 
 17 
 6 10 11 12 15 18 21 22 23 25 30 34 
 35 36 37 38 39 
 38 
 1 2 3 4 5 6 8 10 11 12 13 14 
 15 16 18 19 20 21 22 23 24 25 26 27 
 28 29 30 31 32 34 35 36 37 38 39 40 
 41 42 
 15 
 2 7 8 11 12 15 19 20 22 23 26 36 
 37 38 40 
 24 
 2 4 5 6 8 10 11 12 14 15 16 17 
 18 21 22 23 26 27 29 33 35 36 39 42 
 23 
 2 3 7 8 12 14 17 19 20 21 23 24 
 25 27 28 29 30 32 35 37 39 40 41 
 35 
 1 3 4 5 7 8 10 11 12 14 15 16 
 17 18 19 20 22 24 25 26 27 28 29 30 
 31 32 33 34 35 36 37 38 40 41 42 
 23 
 3 4 5 6 7 8 11 14 18 19 21 23 
 27 28 30 31 32 33 35 37 38 39 41 
 23 
 3 7 8 9 12 13 16 18 19 20 21 22 
 25 27 30 33 34 35 36 37 39 40 41 
 10 
 1 2 4 19 25 33 34 36 39 41 
 39 
 1 2 3 4 5 6 7 8 9 10 11 12 
 13 14 15 16 17 18 19 21 22 23 24 26 
 27 28 29 30 31 32 33 34 35 36 37 38 
 39 40 41 
 23 
 1 3 6 7 13 14 16 17 18 19 21 23 
 24 25 26 27 31 32 33 34 36 38 39 
 40 
 1 3 4 5 6 8 9 10 11 12 13 14 
 15 16 17 18 19 20 21 22 23 24 25 26 
 27 28 29 30 31 32 33 34 35 36 37 38 
 39 40 41 42 
 2 
 7 19 
 14 
 1 4 7 10 14 15 16 20 26 27 28 34 
 36 39 
 16 
 3 6 7 10 11 12 17 20 25 26 28 34 
 35 39 40 41 
 37 
 2 3 4 5 6 7 8 9 10 11 12 13 
 14 15 17 19 20 21 22 23 24 25 26 27 
 28 29 30 31 32 33 34 36 37 38 40 41 
 42 
 11 
 5 7 8 11 18 24 31 33 38 40 41 
 11 
 3 9 13 16 21 22 26 38 40 41 42 
 34 
 2 4 5 6 8 9 10 11 12 13 15 16 
 18 19 20 21 22 23 26 27 28 29 30 31 
 32 33 34 35 36 38 39 40 41 42 
 36 
 1 2 3 5 6 8 9 10 11 12 13 14 
 15 16 17 18 20 22 23 24 26 27 28 29 
 30 31 32 33 34 35 36 37 38 39 40 42 
 37 
 1 2 3 4 5 8 9 11 12 13 14 15 
 16 17 18 19 20 21 22 23 25 26 27 28 
 29 30 31 32 33 34 35 36 37 38 39 40 
 41 
 15 
 1 7 8 9 11 12 14 15 16 21 23 32 
 36 37 42 
 20 
 1 4 5 6 7 9 10 15 17 18 19 20 
 21 24 27 28 32 35 39 42 
 2 
 18 40 
 10 
 1 4 12 14 24 26 27 31 39 41 
 8 
 3 5 18 28 31 36 41 42 
 7 
 3 5 6 13 15 17 38 
 4 
 1 15 34 35 
 12 
 2 3 9 12 13 16 22 24 26 29 32 39 
 41 
 1 2 3 4 5 6 7 8 9 10 11 12 
 13 14 15 16 17 18 19 21 22 23 24 25 
 26 27 28 29 30 31 32 33 34 35 36 37 
 38 39 40 41 42 
 3 
 3 16 18 
 27 
 4 6 7 12 13 15 16 17 20 21 23 24 
 26 27 28 29 30 31 32 33 34 35 37 38 
 39 41 42 
 26 
 2 3 5 6 7 9 10 11 13 14 15 16 
 17 21 25 27 28 29 31 32 33 34 37 39 
 40 42 
 24 
 1 4 6 7 8 9 11 12 13 17 18 21 
 22 23 26 29 30 32 34 35 36 37 39 42 
 33 
 1 2 4 5 6 7 8 9 10 12 14 15 
 17 18 19 20 21 22 23 25 26 27 28 29 
 30 31 33 35 36 37 38 40 41 
 34 
 1 3 4 5 6 7 8 9 10 12 13 16 
 17 18 19 20 21 23 24 25 26 27 28 31 
 32 33 34 35 36 37 38 40 41 42 
 24 
 3 5 6 8 9 10 11 12 13 15 16 19 
 20 23 25 26 28 30 31 34 37 38 40 42 
 41 
 1 2 4 5 6 7 8 9 10 11 12 13 
 14 15 16 17 18 19 20 21 22 23 24 25 
 26 27 28 29 30 31 32 33 34 35 36 37 
 38 39 40 41 42 
 22 
 6 7 8 9 10 12 13 14 18 19 20 23 
 25 26 28 32 33 34 36 38 39 41 
 11 
 1 2 8 9 11 18 25 26 33 34 41 
 14 
 8 9 10 11 13 14 16 18 25 28 29 33 
 38 39 
 12 
 1 12 13 14 16 17 22 26 27 28 32 33 
 7 
 13 21 22 27 30 31 32 
 14 
 1 3 4 5 7 10 13 16 19 25 26 28 
 40 41 
 18 
 1 3 8 10 11 12 13 16 18 23 28 29 
 30 32 35 36 38 40 
 35 
 2 3 4 6 7 8 9 10 11 12 13 14 
 16 17 18 20 21 22 24 25 27 28 29 30 
 31 32 34 35 36 37 38 39 40 41 42 
 35 
 1 2 3 4 6 7 10 11 12 13 15 16 
 17 18 19 20 22 23 24 25 26 27 28 29 
 30 32 33 34 35 36 37 38 39 40 41 
 7 
 14 15 20 23 24 27 39 
 13 
 3 4 7 8 10 11 19 20 24 25 31 37 
 38 
 20 
 1 2 3 4 8 9 10 12 13 15 16 19 
 20 24 25 28 31 38 40 42 
 14 
 1 4 10 14 15 17 19 20 23 24 32 33 
 36 39 
 40 
 1 2 3 4 5 6 7 8 9 10 11 12 
 13 14 15 16 17 18 21 22 23 24 25 26 
 27 28 29 30 31 32 33 34 35 36 37 38 
 39 40 41 42 
 17 
 7 9 11 14 15 17 18 19 27 29 31 33 
 34 35 36 37 39 
 42 
 1 2 3 4 5 6 7 8 9 10 11 12 
 13 14 15 16 17 18 19 20 21 22 23 24 
 25 26 27 28 29 30 31 32 33 34 35 36 
 37 38 39 40 41 42 
 26 
 1 5 6 7 9 10 13 14 15 17 18 19 
 20 22 23 24 25 26 28 31 35 36 37 38 
 39 41 
 20 
 3 5 8 12 13 15 16 17 22 23 25 28 
 29 30 31 32 33 34 37 41 
 27 
 5 6 7 8 9 11 12 13 14 16 17 18 
 19 20 22 24 25 26 27 29 32 33 35 36 
 39 41 42 
 39 
 1 2 3 4 5 6 8 9 10 11 12 13 
 15 16 17 18 19 20 21 22 23 24 25 26 
 27 28 29 30 31 32 33 34 35 36 37 38 
 39 40 41 
 18 
 3 4 5 10 13 14 15 17 19 21 26 28 
 29 34 35 36 41 42 
 18 
 6 8 9 10 11 20 22 23 26 27 28 29 
 30 32 33 36 39 40 
 3 
 2 17 28 
 23 
 3 5 8 9 10 11 12 16 18 19 20 21 
 22 26 28 30 32 33 35 36 38 41 42 
 33 
 2 4 5 7 9 10 12 13 14 16 17 18 
 19 20 21 22 23 24 25 26 27 28 30 31 
 32 34 35 36 37 38 39 41 42 
 24 
 1 2 3 4 5 8 10 11 12 15 18 19 
 20 22 24 26 28 31 35 36 38 39 40 42 
 36 
 1 2 3 4 7 9 10 11 12 13 14 15 
 16 17 18 19 20 21 22 23 25 26 27 28 
 29 30 33 34 35 36 37 38 39 40 41 42 
 